LAMMPS (29 Aug 2024 - Update 1)
#DPD

dimension      	3
units          	lj
#comm_modify		vel yes
comm_modify    	mode single cutoff 2.0 vel yes
#newton			off

#atom_style		hybrid atomic charge
atom_style		atomic
#atom_style		charge

#neighbor			0.3 bin
#neigh_modify		delay 0 every 4 check no
neighbor       	2.5 bin
neigh_modify   	delay 2

region			domain block -5 5 -5 5 -5 5 units box
create_box		2 domain
Created orthogonal box = (-5 -5 -5) to (5 5 5)
  2 by 2 by 2 MPI processor grid
change_box 		all boundary p p p
Changing box ...

#lattice			fcc 4
create_atoms		1 random 1500 15255 domain
Created 1500 atoms
  using lattice units in orthogonal box = (-5 -5 -5) to (5 5 5)
  create_atoms CPU = 0.001 seconds
create_atoms		2 random 1500 47214 domain
Created 1500 atoms
  using lattice units in orthogonal box = (-5 -5 -5) to (5 5 5)
  create_atoms CPU = 0.000 seconds
#create_atoms		3 random 98 30182 domain

#dump				dump1 all atom 2 checkargeclas.lammpstrj

#set				type 2 charge  1.0
#set				type 3 charge -1.0
mass				* 1.0

pair_style		dpd 1.0 1.0 419084618

#kspace_style 		pppm 5.0
#pair_style		hybrid/overlay coul/long 2.5 dpd 1.0 1.0 419084618

#kspace_style		ewald 5.0
#pair_coeff		* * lj/cut/coul/long 0 1
pair_coeff		1 1 25.0 4.5 1.0
pair_coeff		1 2 50.0 4.5 1.0
pair_coeff		2 2 25.0 4.5 1.0
#pair_coeff		* * coul/long

thermo_style		custom step temp pe press
thermo 200

#variable			f file tmp.times
#variable			s equal next(f)
#dump				conf_run all custom 100 ./frames/Conf_Run.* id type x y z vx vy vz
#dump_modify		conf_run every v_s
#dump_modify		conf_run sort id

#dump			dump0 all atom 200 test.lammpstrj
dump			dump0 all atom 500 test.lammpstrj

velocity			all create 1.0 8178251
fix				integrator all nve

timestep       	0.001
run 100000
Generated 0 of 1 mixed pair_coeff terms from geometric mixing rule
Neighbor list info ...
  update: every = 1 steps, delay = 2 steps, check = yes
  max neighbors/atom: 2000, page size: 100000
  master list distance cutoff = 3.5
  ghost atom cutoff = 3.5
  binsize = 1.75, bins = 6 6 6
  1 neighbor lists, perpetual/occasional/extra = 1 0 0
  (1) pair dpd, perpetual
      attributes: half, newton on
      pair build: half/bin/atomonly/newton
      stencil: half/bin/3d
      bin: standard
WARNING: Communication cutoff adjusted to 3.5 (../comm.cpp:739)
Per MPI rank memory allocation (min/avg/max) = 3.39 | 3.63 | 3.775 Mbytes
   Step          Temp          PotEng         Press     
         0   1              12.11864       39.217869    
       200   3.1772783      7.2203338      40.719246    
       400   2.6823151      6.6193318      37.012223    
       600   2.2540828      6.355486       34.496081    
       800   2.0043132      6.1149714      33.02471     
      1000   1.739584       5.9257384      29.988196    
      1200   1.5953185      5.7412934      31.47097     
      1400   1.4907617      5.627825       30.575413    
      1600   1.4086147      5.5350706      29.234056    
      1800   1.3417046      5.4447689      28.77919     
      2000   1.2746927      5.3860181      28.371626    
      2200   1.2162489      5.3725569      27.764844    
      2400   1.1849292      5.3041228      28.984058    
      2600   1.176965       5.2498227      28.896228    
      2800   1.1443154      5.2366411      28.585304    
      3000   1.1209064      5.2189526      28.134703    
      3200   1.1017261      5.1897066      27.573523    
      3400   1.0833815      5.1627097      27.349293    
      3600   1.0554483      5.1725822      27.07002     
      3800   1.0613687      5.1279798      27.325978    
      4000   1.0616179      5.1113072      27.651768    
      4200   1.0580462      5.09697        26.912549    
      4400   1.0306295      5.1060292      27.211028    
      4600   1.0329187      5.0814229      27.480953    
      4800   1.035949       5.0797005      27.331466    
      5000   1.0404888      5.0612366      27.250352    
      5200   1.026698       5.068209       26.855126    
      5400   1.0169608      5.0539793      28.173611    
      5600   1.0179244      5.0592202      26.47245     
      5800   1.0098595      5.0631251      26.468313    
      6000   1.0376417      5.0225029      26.356233    
      6200   1.0301681      5.0343705      26.168886    
      6400   1.0257976      5.0237597      25.384731    
      6600   1.0234868      5.01468        26.502062    
      6800   1.0173379      5.0000199      26.868345    
      7000   1.0108589      5.0174555      26.740206    
      7200   1.0168584      5.0109716      26.431612    
      7400   1.0262915      4.990426       26.012887    
      7600   1.0088311      5.0088455      26.523407    
      7800   1.0264041      4.9894973      26.904795    
      8000   1.0113499      4.9938083      25.648534    
      8200   1.0097773      4.9677472      25.163914    
      8400   0.98409458     5.003015       25.862179    
      8600   0.99640736     4.9818342      26.406158    
      8800   0.998025       4.9646527      25.556773    
      9000   1.0013416      4.9545166      25.814169    
      9200   0.99322084     4.9472345      26.476312    
      9400   0.98310501     4.9810586      26.005965    
      9600   0.99175508     4.9753071      26.909806    
      9800   1.0016219      4.9776537      26.235901    
     10000   1.0138139      4.963229       26.175943    
     10200   1.0374774      4.9532384      26.291374    
     10400   1.0269882      4.9597066      25.602136    
     10600   1.021557       4.955803       26.798541    
     10800   1.0112906      4.9622231      26.010044    
     11000   1.0153498      4.957287       25.283794    
     11200   1.0237492      4.9186723      25.547143    
     11400   1.041705       4.9465732      26.935914    
     11600   1.0417613      4.9300678      25.882344    
     11800   1.049577       4.9547114      26.199218    
     12000   1.0320051      4.9664373      26.104106    
     12200   1.0533636      4.9306971      25.85791     
     12400   1.0342544      4.9372644      25.676353    
     12600   1.0252256      4.9427454      26.074166    
     12800   1.0379155      4.9261982      26.663343    
     13000   1.0334407      4.910307       25.607264    
     13200   1.0488552      4.9042874      26.416096    
     13400   1.0225057      4.9570135      25.472733    
     13600   1.0490272      4.9085034      26.85818     
     13800   1.0419535      4.9269822      26.271907    
     14000   1.0303633      4.9080104      26.651397    
     14200   1.0052824      4.9233176      26.689803    
     14400   1.0238508      4.8886365      25.042894    
     14600   1.0288321      4.8808803      25.356561    
     14800   1.0139786      4.8752985      25.671438    
     15000   1.0195507      4.8510935      27.381192    
     15200   1.0139734      4.8830185      25.410211    
     15400   1.0376995      4.8652106      24.9786      
     15600   1.0303975      4.8737311      25.259225    
     15800   1.0314785      4.8854283      26.666625    
     16000   1.0331959      4.8655832      25.150623    
     16200   1.0202775      4.8570992      26.169323    
     16400   0.99412781     4.8747139      24.960482    
     16600   0.99939841     4.8653117      25.234565    
     16800   1.0089282      4.8420758      25.739145    
     17000   1.0009988      4.8704938      26.760223    
     17200   1.0125514      4.8692876      25.308055    
     17400   0.99956297     4.8653099      25.530302    
     17600   1.0022824      4.8485244      25.003583    
     17800   1.0179485      4.8404391      25.071225    
     18000   1.0331043      4.8461952      25.754202    
     18200   1.0494764      4.8661539      25.492882    
     18400   1.0424056      4.8583239      25.850299    
     18600   1.0455462      4.8350391      26.123439    
     18800   1.0397616      4.8214214      27.097605    
     19000   1.0262031      4.826018       25.203516    
     19200   1.0099287      4.8335878      25.018818    
     19400   1.0271965      4.7988665      25.988442    
     19600   1.0163983      4.7970902      25.123894    
     19800   1.0108423      4.8121842      26.008812    
     20000   1.003897       4.7994412      25.309791    
     20200   1.01184        4.8092149      25.368856    
     20400   0.99906167     4.8145167      24.885577    
     20600   1.0119821      4.814186       25.605307    
     20800   1.022724       4.7989824      27.208943    
     21000   0.99553101     4.8254011      26.154506    
     21200   0.99946463     4.8103428      26.229491    
     21400   1.0125746      4.7779393      25.139764    
     21600   0.98237535     4.8173182      25.187175    
     21800   0.99978318     4.7868305      25.386118    
     22000   1.0042126      4.792555       24.923919    
     22200   1.0088998      4.7880572      24.930282    
     22400   1.0272647      4.791864       26.026273    
     22600   1.0233499      4.8107365      24.774928    
     22800   1.0011701      4.7969516      24.288407    
     23000   1.0073796      4.794358       25.82553     
     23200   0.99418106     4.8185597      25.353751    
     23400   1.0270727      4.7982537      25.019526    
     23600   1.0292835      4.7997601      25.44885     
     23800   1.0323427      4.7959484      25.845872    
     24000   1.0395581      4.7985654      26.095172    
     24200   1.0456985      4.8025348      24.732013    
     24400   1.0261844      4.7874995      24.750248    
     24600   1.0153642      4.7867777      24.751145    
     24800   1.0172587      4.7689286      24.906981    
     25000   1.0076253      4.7864314      25.421691    
     25200   1.0182684      4.7763435      25.246642    
     25400   1.0057171      4.8022112      26.27273     
     25600   0.99987906     4.8098769      25.147506    
     25800   1.0227536      4.7850972      25.419839    
     26000   1.0315168      4.7994619      24.521113    
     26200   1.0101443      4.7965699      24.274567    
     26400   1.0203281      4.786709       25.237715    
     26600   0.9967747      4.7917039      25.283989    
     26800   1.0002771      4.7808787      25.260504    
     27000   1.0192401      4.740151       24.505388    
     27200   1.0165718      4.752708       25.07315     
     27400   1.0058325      4.7950717      25.960861    
     27600   1.0295344      4.7854299      25.910396    
     27800   1.0308361      4.8002211      25.573625    
     28000   1.039596       4.7919031      25.250668    
     28200   1.0153636      4.7926855      26.485877    
     28400   1.0122486      4.7953464      24.787789    
     28600   0.999437       4.7866372      25.066537    
     28800   1.0075491      4.7720733      25.116582    
     29000   1.0107585      4.7817202      25.175485    
     29200   1.0037464      4.7785401      24.81539     
     29400   1.0176528      4.7538533      25.48077     
     29600   1.0005298      4.7762699      24.720881    
     29800   1.0006879      4.7451668      25.209762    
     30000   0.98132752     4.7741399      25.385067    
     30200   1.0044628      4.7739372      25.763328    
     30400   0.9886321      4.7709281      25.044813    
     30600   1.0083273      4.7508905      25.718759    
     30800   0.99829431     4.7684912      24.867262    
     31000   1.0108124      4.7745871      25.893167    
     31200   0.99644165     4.7814218      25.046097    
     31400   1.027799       4.7664753      24.185069    
     31600   1.035193       4.756432       25.308784    
     31800   1.0197652      4.7665805      24.117387    
     32000   1.0141882      4.7659595      24.934488    
     32200   0.9929709      4.7692557      25.840418    
     32400   1.0180824      4.7531827      26.021967    
     32600   1.003629       4.7803203      24.273348    
     32800   1.0038451      4.7816176      25.551586    
     33000   1.0008331      4.7802079      25.022221    
     33200   1.005074       4.7609855      24.218899    
     33400   1.0045682      4.7580213      25.333784    
     33600   1.0050079      4.7306488      24.972595    
     33800   1.014289       4.7554803      25.629144    
     34000   0.99662689     4.7534805      25.03122     
     34200   1.0190535      4.7769006      25.097893    
     34400   0.9978541      4.7795164      24.54286     
     34600   1.0122552      4.7637526      25.192717    
     34800   1.0001312      4.7783836      25.024336    
     35000   1.0236248      4.7694339      25.319731    
     35200   1.0150612      4.7820142      25.804492    
     35400   1.0110867      4.76814        25.130878    
     35600   1.0167107      4.7383617      25.171935    
     35800   1.0038705      4.7580783      25.693716    
     36000   1.0122998      4.7507697      26.764226    
     36200   0.99087332     4.7546851      25.312587    
     36400   0.98433931     4.7396243      24.258041    
     36600   0.98315187     4.7278457      24.625062    
     36800   0.99376825     4.7237083      25.265428    
     37000   0.996611       4.7482228      24.637346    
     37200   0.98594972     4.7466201      25.410231    
     37400   0.98266924     4.7762704      25.877992    
     37600   0.99187839     4.7451857      24.814864    
     37800   0.98118225     4.7534046      25.925256    
     38000   0.98926466     4.7357623      23.961699    
     38200   0.99342508     4.7557218      24.562748    
     38400   0.98858735     4.7431589      25.474101    
     38600   0.99265631     4.754181       23.954517    
     38800   1.0015175      4.7511813      24.088924    
     39000   0.99047568     4.7807634      25.499134    
     39200   0.99303527     4.7605657      25.362678    
     39400   1.0169421      4.7474963      25.254839    
     39600   1.0093031      4.7422727      24.742129    
     39800   1.0097186      4.7513283      24.148527    
     40000   0.98369173     4.7698477      24.580677    
     40200   1.0174105      4.7361317      25.36644     
     40400   1.0009696      4.7580268      24.657617    
     40600   1.0009897      4.7471054      23.789368    
     40800   1.0094506      4.7438707      25.888282    
     41000   1.0135811      4.7547615      25.109911    
     41200   1.015291       4.7427102      24.990668    
     41400   0.99924322     4.7568274      24.554892    
     41600   0.97905267     4.7564883      24.615833    
     41800   0.99374283     4.7296773      25.292476    
     42000   0.98574599     4.7394024      25.476457    
     42200   1.0027785      4.7276693      25.725348    
     42400   0.99428104     4.7038604      24.305745    
     42600   0.9721024      4.7487734      25.224669    
     42800   0.98448387     4.747073       24.682691    
     43000   0.99286403     4.7280749      25.995672    
     43200   0.98526581     4.7130917      24.553988    
     43400   0.98530634     4.7109948      24.861       
     43600   0.96408013     4.7487339      24.361765    
     43800   0.98309194     4.7191924      25.661992    
     44000   0.98081207     4.7367752      25.736464    
     44200   1.0016282      4.7318982      24.817538    
     44400   0.99265751     4.7387001      24.250731    
     44600   0.98937471     4.7398805      23.782491    
     44800   1.0065936      4.7346526      22.998328    
     45000   1.0030239      4.7498384      25.305636    
     45200   1.0008875      4.7372335      24.087621    
     45400   0.98074826     4.7523392      24.79981     
     45600   1.0041958      4.7406494      25.176261    
     45800   0.99097374     4.746068       24.126498    
     46000   1.0123186      4.7295935      24.865169    
     46200   0.99901794     4.7682494      24.360593    
     46400   1.0086572      4.7597711      25.07292     
     46600   1.014834       4.7410682      24.722617    
     46800   1.0132966      4.7264346      26.69984     
     47000   1.0148102      4.7474299      25.054203    
     47200   1.0329771      4.7566398      25.936191    
     47400   1.0369667      4.7511567      25.597688    
     47600   1.0300136      4.749127       26.222463    
     47800   1.0147001      4.7661179      25.76228     
     48000   1.002585       4.7592453      25.198352    
     48200   0.99851984     4.7384835      25.112595    
     48400   0.97381353     4.7685585      25.653873    
     48600   0.9794198      4.7459355      24.237763    
     48800   0.98228773     4.7577247      25.137581    
     49000   0.99892579     4.757413       25.651669    
     49200   0.97177532     4.7694213      23.641596    
     49400   0.9850765      4.7399317      24.893744    
     49600   1.0133048      4.723296       23.138142    
     49800   0.9963075      4.7507394      24.853523    
     50000   1.0038873      4.751649       25.0387      
     50200   1.0166281      4.736742       24.643169    
     50400   0.98475304     4.7585854      23.403743    
     50600   1.006196       4.7340002      25.028391    
     50800   0.98740128     4.7489633      25.387953    
     51000   0.99585288     4.7445125      25.192058    
     51200   1.0053494      4.7262602      25.181261    
     51400   0.99789346     4.7347828      25.365402    
     51600   0.99902545     4.7286772      26.228801    
     51800   0.99881174     4.7238538      23.991592    
     52000   1.0156669      4.7424592      24.791879    
     52200   1.0150265      4.7351593      24.65359     
     52400   1.0001306      4.7567461      25.221505    
     52600   1.0243259      4.7461901      24.501377    
     52800   1.0237605      4.7286379      25.486761    
     53000   1.0197587      4.7351298      24.231989    
     53200   1.0146861      4.7359184      25.503635    
     53400   1.0014669      4.7600529      25.037379    
     53600   1.022151       4.7530287      25.645421    
     53800   1.0216936      4.7450273      26.322266    
     54000   1.0267817      4.748935       26.02178     
     54200   1.0163559      4.7577304      25.952893    
     54400   1.0039442      4.7881908      24.907364    
     54600   1.0230742      4.7700821      24.932388    
     54800   1.0099659      4.7733529      25.025308    
     55000   1.0217039      4.7546341      25.89575     
     55200   1.0169109      4.7658433      24.970256    
     55400   1.0184222      4.775562       24.668386    
     55600   1.0244675      4.7615618      25.406504    
     55800   1.0207146      4.7418751      23.918627    
     56000   1.0018079      4.7570499      25.493901    
     56200   1.0043901      4.7306007      24.854959    
     56400   1.0069986      4.7421594      24.829774    
     56600   1.0099516      4.770848       25.416581    
     56800   1.0252918      4.7628198      26.508727    
     57000   1.0285389      4.7329086      25.360115    
     57200   1.0077397      4.7548781      25.466042    
     57400   1.0246679      4.7377389      25.588241    
     57600   1.0256405      4.7486838      24.439383    
     57800   0.9927785      4.7617189      26.866803    
     58000   1.0006984      4.7385284      23.552178    
     58200   1.0091945      4.7103584      24.269735    
     58400   1.0084748      4.7225595      25.299835    
     58600   0.97553636     4.7470232      24.915289    
     58800   0.97452889     4.7372728      25.207514    
     59000   0.99119965     4.737386       25.395949    
     59200   0.98952863     4.7269567      24.220297    
     59400   0.98836215     4.7507878      24.8331      
     59600   0.98197555     4.7508683      25.611052    
     59800   1.0119553      4.7415875      25.298552    
     60000   1.0083259      4.7583066      23.979321    
     60200   1.0145615      4.7698079      24.715262    
     60400   1.0258783      4.7365637      25.620139    
     60600   1.0145311      4.7636548      25.479028    
     60800   1.0116393      4.7770009      25.154513    
     61000   1.0021555      4.7729747      25.806281    
     61200   1.0146036      4.7206337      24.441378    
     61400   0.98560239     4.7711818      24.793639    
     61600   1.014005       4.7390154      25.223597    
     61800   0.99794025     4.7588172      26.243244    
     62000   1.0112353      4.7603403      24.43007     
     62200   1.0128076      4.7603391      23.509966    
     62400   1.0294301      4.7534503      24.427912    
     62600   1.0159448      4.7526477      25.198998    
     62800   1.0088732      4.7434398      26.177294    
     63000   0.99179091     4.7653107      24.329049    
     63200   0.98523262     4.7613073      24.291635    
     63400   1.0075895      4.7248954      25.196687    
     63600   1.0224648      4.7298303      25.421121    
     63800   1.0102978      4.7489583      25.787893    
     64000   1.0152993      4.7636079      25.708376    
     64200   1.0194189      4.7516825      24.155605    
     64400   1.013601       4.741717       25.374443    
     64600   1.0037853      4.7252501      24.397265    
     64800   1.0067927      4.7495283      25.880551    
     65000   0.99938622     4.7488493      24.540316    
     65200   0.98278307     4.7564233      25.155692    
     65400   1.0007616      4.7364391      23.988226    
     65600   0.99435357     4.7510634      25.418839    
     65800   1.0021081      4.7731557      24.899051    
     66000   1.0156057      4.7452431      24.177347    
     66200   1.0209005      4.7652845      25.481532    
     66400   1.0214443      4.7583837      25.885099    
     66600   1.0150658      4.782438       25.477562    
     66800   1.0166919      4.785577       24.452137    
     67000   1.0196834      4.7517708      25.365066    
     67200   1.0244627      4.7528846      24.441978    
     67400   1.038476       4.7506975      24.431314    
     67600   1.0257289      4.761764       25.636985    
     67800   1.0149521      4.7790432      23.698007    
     68000   1.0111655      4.7843657      24.664452    
     68200   0.98911073     4.7847653      24.89599     
     68400   0.98153677     4.7928666      25.798118    
     68600   1.022163       4.757152       25.368187    
     68800   0.99954626     4.76343        24.477006    
     69000   1.0256982      4.7256065      25.639026    
     69200   1.0243968      4.7316697      24.176409    
     69400   0.99213591     4.7447455      25.999308    
     69600   1.0097169      4.7276907      25.498161    
     69800   0.97906559     4.7805542      26.130629    
     70000   0.98539327     4.7643197      24.669098    
     70200   0.98879563     4.7352871      24.500408    
     70400   0.99762135     4.741419       25.022561    
     70600   0.97679343     4.7504332      25.299916    
     70800   0.96321468     4.7517725      24.505095    
     71000   0.97289325     4.7364848      25.326619    
     71200   0.98241637     4.7387881      24.91359     
     71400   0.9823479      4.7437053      25.025693    
     71600   0.99068988     4.7353646      26.525704    
     71800   1.0046819      4.7420574      24.534019    
     72000   0.9884689      4.75366        25.522456    
     72200   1.0070784      4.7428899      26.099268    
     72400   1.0056526      4.7284941      24.856367    
     72600   0.98170572     4.7242044      25.304388    
     72800   0.98017554     4.7470475      25.660844    
     73000   0.97781198     4.7328934      24.879954    
     73200   0.97014333     4.7349027      24.753851    
     73400   0.96516007     4.724833       25.415773    
     73600   0.99003123     4.7187004      24.148174    
     73800   0.98825372     4.7251319      25.075435    
     74000   0.99375494     4.7263591      26.909304    
     74200   0.98074193     4.7156879      23.980966    
     74400   0.99037236     4.7339137      25.09644     
     74600   0.97832185     4.7628202      25.273611    
     74800   0.98913805     4.7741427      24.234007    
     75000   0.9940711      4.7478473      24.864556    
     75200   0.9818952      4.7566747      24.854948    
     75400   0.98497625     4.7467571      23.791016    
     75600   1.0042797      4.7159944      24.575666    
     75800   1.000484       4.7301415      25.395056    
     76000   0.96866008     4.7688556      25.258987    
     76200   0.98135296     4.7488914      24.620356    
     76400   0.98638262     4.7384184      24.796927    
     76600   0.9781747      4.7231541      24.317169    
     76800   0.97458216     4.7425247      24.237769    
     77000   1.0014141      4.7439689      24.427433    
     77200   0.99566534     4.7373572      23.804917    
     77400   1.0228135      4.7238296      24.969124    
     77600   0.98510661     4.7575517      24.770668    
     77800   0.98744944     4.7700441      24.694477    
     78000   0.99512396     4.7522644      25.934017    
     78200   0.99504808     4.7612188      23.56251     
     78400   1.0000876      4.7321565      25.825285    
     78600   0.9879175      4.7489194      25.142861    
     78800   0.9931921      4.7512249      23.548715    
     79000   1.0046462      4.7041151      24.692526    
     79200   0.99358688     4.7244824      25.855627    
     79400   0.9922643      4.72558        25.935567    
     79600   0.99901507     4.7249116      25.543861    
     79800   0.98805922     4.7691029      24.369948    
     80000   0.98378066     4.7527216      25.350301    
     80200   0.99800249     4.7473444      25.715363    
     80400   0.98206146     4.7581956      24.722021    
     80600   0.99423899     4.7391007      26.317819    
     80800   0.99306887     4.7567439      25.269322    
     81000   0.98825232     4.7529806      24.947278    
     81200   1.0154403      4.728271       25.418281    
     81400   1.0028914      4.7434674      24.564964    
     81600   0.98467486     4.770634       24.570867    
     81800   1.0024128      4.768545       24.745829    
     82000   1.006243       4.7685136      24.251311    
     82200   1.0292963      4.7548883      24.524868    
     82400   1.030228       4.760883       24.292571    
     82600   1.0275752      4.7496438      24.704162    
     82800   1.0127397      4.7724739      25.175823    
     83000   1.0234316      4.7601814      23.818365    
     83200   1.0227997      4.7603237      24.732089    
     83400   1.020401       4.7391184      25.329169    
     83600   0.99702035     4.7495401      24.754923    
     83800   0.99314842     4.7609065      26.186692    
     84000   1.0224084      4.752887       25.920598    
     84200   1.0125272      4.7537959      24.223167    
     84400   1.0047133      4.7622404      24.629576    
     84600   1.0174144      4.7472515      25.417311    
     84800   0.99558145     4.7719233      25.009942    
     85000   1.0061749      4.7378391      23.732254    
     85200   0.99735777     4.7547057      25.951529    
     85400   1.0136427      4.7543191      24.973132    
     85600   0.99187329     4.7713641      24.148281    
     85800   1.0130342      4.7452907      25.358811    
     86000   1.0000264      4.7481371      24.46158     
     86200   0.99316598     4.7476288      24.495668    
     86400   0.99085515     4.7578635      24.308738    
     86600   0.9911663      4.7719885      24.806828    
     86800   1.0046777      4.7486391      24.212351    
     87000   0.9903733      4.7705919      24.843084    
     87200   0.9916184      4.7452856      24.873025    
     87400   0.9885575      4.7482642      25.38698     
     87600   0.99729305     4.734226       24.47462     
     87800   0.99496502     4.7461352      24.88953     
     88000   0.98101807     4.7497814      23.575527    
     88200   0.99842708     4.7281458      24.556825    
     88400   0.98926926     4.7544199      25.02395     
     88600   0.99909035     4.7351976      24.028764    
     88800   1.0206672      4.7180178      24.351389    
     89000   0.9964553      4.7526291      25.418552    
     89200   0.99004636     4.7498533      24.587394    
     89400   1.0075266      4.7525319      24.812655    
     89600   1.0189951      4.7365613      24.460265    
     89800   1.0258226      4.7459082      25.061338    
     90000   1.0212615      4.7644         24.592983    
     90200   1.007178       4.7480826      24.874008    
     90400   1.018614       4.7349917      24.863545    
     90600   0.98519815     4.7478509      25.954673    
     90800   1.004127       4.7295437      23.469853    
     91000   1.0161183      4.7078744      23.702381    
     91200   1.0228862      4.7237934      24.919826    
     91400   0.99340685     4.735947       23.629602    
     91600   0.99736787     4.7542034      25.604631    
     91800   1.0023484      4.7314534      23.086911    
     92000   0.97805539     4.7654863      25.306051    
     92200   0.98824475     4.7387318      23.902299    
     92400   0.98782985     4.7427357      24.921569    
     92600   0.99388307     4.7354531      24.673683    
     92800   0.98621969     4.7354821      24.907635    
     93000   0.9886956      4.7300342      22.949705    
     93200   1.0256596      4.7222302      25.399226    
     93400   1.017543       4.763375       24.704934    
     93600   1.0431909      4.7609905      23.322187    
     93800   1.0286329      4.7797955      24.873906    
     94000   1.0137157      4.775143       24.739806    
     94200   1.01237        4.7514565      25.285213    
     94400   1.0205352      4.7633662      25.434728    
     94600   1.0022728      4.7451207      25.356972    
     94800   0.99156306     4.7594074      24.489837    
     95000   1.0022315      4.7238103      24.364453    
     95200   1.0054591      4.7487483      24.884305    
     95400   0.98708511     4.7718332      23.698612    
     95600   1.0088873      4.7400641      24.942352    
     95800   1.0051863      4.7488099      26.171688    
     96000   1.0038442      4.7627029      23.670183    
     96200   1.005625       4.7484831      25.214871    
     96400   0.98969309     4.7455022      24.696624    
     96600   0.99171659     4.7414521      25.304469    
     96800   0.98205523     4.7397924      23.771956    
     97000   0.98796657     4.729106       25.79014     
     97200   0.99795136     4.7276516      24.005361    
     97400   0.99382553     4.7579733      24.707849    
     97600   0.992504       4.7566578      24.883641    
     97800   0.99485264     4.7579421      25.44605     
     98000   0.99635035     4.7472523      25.691938    
     98200   0.99784107     4.7267484      25.219224    
     98400   0.97328465     4.751506       25.182384    
     98600   0.97514938     4.7179098      23.96003     
     98800   0.98881945     4.7326237      24.602468    
     99000   0.98283648     4.7399955      24.426947    
     99200   0.99512204     4.7386535      25.171353    
     99400   1.0014271      4.739582       24.746158    
     99600   0.99232026     4.7537787      24.552713    
     99800   1.0156373      4.736896       24.266069    
    100000   1.0302909      4.7465345      23.646576    
Loop time of 206 on 8 procs for 100000 steps with 3000 atoms

Performance: 41941.687 tau/day, 485.436 timesteps/s, 1.456 Matom-step/s
68.8% CPU use with 8 MPI tasks x no OpenMP threads

MPI task timing breakdown:
Section |  min time  |  avg time  |  max time  |%varavg| %total
---------------------------------------------------------------
Pair    | 49.081     | 53.489     | 56.865     |  34.0 | 25.97
Neigh   | 1.1295     | 1.1653     | 1.2237     |   2.7 |  0.57
Comm    | 119.11     | 123.67     | 129.04     |  28.9 | 60.04
Output  | 1.0828     | 1.2343     | 1.467      |  11.2 |  0.60
Modify  | 0.52707    | 0.58252    | 0.66697    |   5.5 |  0.28
Other   |            | 25.85      |            |       | 12.55

Nlocal:            375 ave         387 max         367 min
Histogram: 2 1 1 0 0 1 2 0 0 1
Nghost:        4829.25 ave        4853 max        4798 min
Histogram: 1 1 0 0 2 0 1 0 0 3
Neighs:         100805 ave      105779 max       92793 min
Histogram: 1 0 1 1 0 0 0 0 4 1

Total # of neighbors = 806440
Ave neighs/atom = 268.81333
Neighbor list builds = 306
Dangerous builds = 0
#run 20000
#run 10000

Total wall time: 0:03:26
