LAMMPS (29 Aug 2024 - Update 1)
#DPD

dimension      	3
units          	lj
#comm_modify		vel yes
comm_modify    	mode single cutoff 2.0 vel yes
#newton			off

#atom_style		hybrid atomic charge
atom_style		atomic
#atom_style		charge

#neighbor			0.3 bin
#neigh_modify		delay 0 every 4 check no
neighbor       	2.5 bin
neigh_modify   	delay 2

region			domain block -5 5 -5 5 -5 5 units box
create_box		2 domain
Created orthogonal box = (-5 -5 -5) to (5 5 5)
  2 by 2 by 2 MPI processor grid
change_box 		all boundary p p p
Changing box ...

#lattice			fcc 4
create_atoms		1 random 1500 15255 domain
Created 1500 atoms
  using lattice units in orthogonal box = (-5 -5 -5) to (5 5 5)
  create_atoms CPU = 0.001 seconds
#create_atoms		2 random 1500 47214 domain
#create_atoms		3 random 98 30182 domain

#dump				dump1 all atom 2 checkargeclas.lammpstrj

#set				type 2 charge  1.0
#set				type 3 charge -1.0
mass				* 1.0

pair_style		dpd 1.0 1.0 419084618

#kspace_style 		pppm 5.0
#pair_style		hybrid/overlay coul/long 2.5 dpd 1.0 1.0 419084618

#kspace_style		ewald 5.0
#pair_coeff		* * lj/cut/coul/long 0 1
pair_coeff		1 1 25.0 4.5 1.0
pair_coeff		1 2 75.0 4.5 1.0
pair_coeff		2 2 25.0 4.5 1.0
#pair_coeff		* * coul/long

thermo_style		custom step temp pe press
thermo 200

#variable			f file tmp.times
#variable			s equal next(f)
#dump				conf_run all custom 100 ./frames/Conf_Run.* id type x y z vx vy vz
#dump_modify		conf_run every v_s
#dump_modify		conf_run sort id

dump			dump0 all atom 200 test.lammpstrj

velocity			all create 1.0 8178251
fix				integrator all nve

timestep       	0.001
run 20000
Generated 0 of 1 mixed pair_coeff terms from geometric mixing rule
Neighbor list info ...
  update: every = 1 steps, delay = 2 steps, check = yes
  max neighbors/atom: 2000, page size: 100000
  master list distance cutoff = 3.5
  ghost atom cutoff = 3.5
  binsize = 1.75, bins = 6 6 6
  1 neighbor lists, perpetual/occasional/extra = 1 0 0
  (1) pair dpd, perpetual
      attributes: half, newton on
      pair build: half/bin/atomonly/newton
      stencil: half/bin/3d
      bin: standard
WARNING: Communication cutoff adjusted to 3.5 (../comm.cpp:739)
Per MPI rank memory allocation (min/avg/max) = 3.211 | 3.213 | 3.215 Mbytes
   Step          Temp          PotEng         Press     
         0   1              3.934525       7.3747801    
       200   2.0474664      1.9029617      7.5931578    
       400   1.8950972      1.917551       7.037811     
       600   1.7971674      1.8949695      7.5279979    
       800   1.6490274      1.8777572      6.8707351    
      1000   1.6048115      1.7993297      6.3241697    
      1200   1.5713395      1.7245986      6.4630788    
      1400   1.4460059      1.7397977      6.461762     
      1600   1.4161308      1.6784937      6.5179481    
      1800   1.3839725      1.655678       6.52473      
      2000   1.3419332      1.6276808      6.1929227    
      2200   1.2966798      1.6151912      6.4958353    
      2400   1.2796245      1.5762234      6.6343306    
      2600   1.2491009      1.5753335      5.9670451    
      2800   1.2079304      1.6051002      6.7939473    
      3000   1.1973004      1.5439042      6.4806595    
      3200   1.1664483      1.5293014      5.5847524    
      3400   1.1302675      1.5271493      5.7841038    
      3600   1.1436228      1.5092392      5.5695362    
      3800   1.1529829      1.4875158      5.9441753    
      4000   1.1283427      1.5176943      6.1842302    
      4200   1.1337218      1.5040161      5.562798     
      4400   1.1222493      1.4966228      6.0457173    
      4600   1.1226914      1.4678945      5.9693649    
      4800   1.0972925      1.5081775      5.7629566    
      5000   1.0980419      1.4972921      6.0860263    
      5200   1.0994359      1.4953656      6.3670002    
      5400   1.1227622      1.4851749      5.9206244    
      5600   1.0905525      1.5083144      5.7777418    
      5800   1.1193704      1.4497599      5.8623405    
      6000   1.0823538      1.4725679      6.4186439    
      6200   1.1161521      1.4329067      6.1424646    
      6400   1.0857822      1.4738385      5.6294078    
      6600   1.0651987      1.4991234      5.5588541    
      6800   1.056648       1.4955372      5.3789926    
      7000   1.0363146      1.4699758      5.7564463    
      7200   1.0288476      1.4611746      5.5612491    
      7400   1.0442123      1.4468327      5.7163651    
      7600   1.0674532      1.4107479      5.0059949    
      7800   1.0421783      1.4476878      5.6476544    
      8000   1.0264953      1.4626922      5.3011734    
      8200   1.0233086      1.4680756      5.919142     
      8400   1.0470846      1.42619        5.5499158    
      8600   1.0397475      1.4445779      5.4873716    
      8800   1.0478496      1.4258935      6.107809     
      9000   1.0453576      1.4330716      6.0608434    
      9200   1.0304846      1.4581954      5.8303819    
      9400   1.0457716      1.4425048      6.2185991    
      9600   1.0284771      1.4376183      5.6770433    
      9800   1.0269317      1.4199379      5.731478     
     10000   1.0184861      1.4162323      5.6855288    
     10200   1.0234471      1.406236       5.5218762    
     10400   1.0224149      1.4232438      5.5449573    
     10600   0.99939573     1.4496979      5.755827     
     10800   1.0029109      1.4357201      5.6621296    
     11000   1.0150567      1.390251       5.8032269    
     11200   1.0002195      1.3962049      5.7667678    
     11400   0.98343456     1.428429       5.6806274    
     11600   1.0063139      1.3935113      5.7676896    
     11800   0.9896349      1.4241069      5.976105     
     12000   0.97419202     1.4358529      5.319394     
     12200   0.97600966     1.4111252      5.5726388    
     12400   0.99044535     1.4004761      5.583273     
     12600   0.98186407     1.4229634      5.0657162    
     12800   0.97737381     1.4193966      5.5488087    
     13000   0.96273523     1.4355952      5.6928869    
     13200   0.97343403     1.4110141      5.1592969    
     13400   0.98675467     1.3851974      5.4330728    
     13600   0.96630254     1.4304901      5.5638454    
     13800   0.967202       1.4228864      4.9098986    
     14000   0.96827089     1.415201       6.0341489    
     14200   0.94963611     1.4272353      5.388496     
     14400   0.96545814     1.404707       5.952117     
     14600   1.0015714      1.3650379      5.7373228    
     14800   0.96238588     1.4116703      6.2250366    
     15000   0.97848319     1.4008938      5.6354822    
     15200   0.96774103     1.4031179      5.828299     
     15400   0.96963307     1.4058962      5.5481984    
     15600   0.98708411     1.3840107      5.8257725    
     15800   0.98588473     1.3763827      5.757092     
     16000   0.96836001     1.4116044      5.4281135    
     16200   0.9655246      1.4178525      5.8373457    
     16400   0.98740968     1.4006221      5.6180953    
     16600   0.99842546     1.3975467      5.8341311    
     16800   0.97688443     1.4203501      5.4826122    
     17000   0.99388308     1.4353284      5.3115863    
     17200   1.0215925      1.3989592      5.1695767    
     17400   1.0099546      1.3941562      6.0126022    
     17600   0.964366       1.4448157      5.9356908    
     17800   0.97751182     1.4030543      6.0690992    
     18000   0.97819598     1.4122424      5.519631     
     18200   0.9891436      1.3996796      5.4887867    
     18400   0.96283328     1.4395013      5.9804154    
     18600   0.97449554     1.4181593      5.2840372    
     18800   0.9799618      1.4119114      5.1361272    
     19000   0.99304018     1.4284152      5.5254136    
     19200   0.99366809     1.4229784      5.6838105    
     19400   0.98346226     1.4452862      5.3168428    
     19600   0.9879605      1.4165626      5.7556207    
     19800   1.0201464      1.360672       5.347611     
     20000   0.99081214     1.4264956      5.637538     
Loop time of 7.22755 on 8 procs for 20000 steps with 1500 atoms

Performance: 239085.077 tau/day, 2767.188 timesteps/s, 4.151 Matom-step/s
96.3% CPU use with 8 MPI tasks x no OpenMP threads

MPI task timing breakdown:
Section |  min time  |  avg time  |  max time  |%varavg| %total
---------------------------------------------------------------
Pair    | 2.0523     | 2.2247     | 2.3755     |   6.9 | 30.78
Neigh   | 0.051366   | 0.057038   | 0.06126    |   1.3 |  0.79
Comm    | 4.2938     | 4.4492     | 4.6218     |   5.0 | 61.56
Output  | 0.033473   | 0.037643   | 0.041433   |   1.3 |  0.52
Modify  | 0.044509   | 0.045809   | 0.047142   |   0.4 |  0.63
Other   |            | 0.4132     |            |       |  5.72

Nlocal:          187.5 ave         196 max         179 min
Histogram: 2 0 0 0 1 2 0 2 0 1
Nghost:        2411.88 ave        2440 max        2386 min
Histogram: 1 0 1 0 4 0 0 1 0 1
Neighs:        25179.1 ave       27004 max       22665 min
Histogram: 1 0 0 1 1 1 2 0 0 2

Total # of neighbors = 201433
Ave neighs/atom = 134.28867
Neighbor list builds = 66
Dangerous builds = 0
#run 10000

Total wall time: 0:00:07
