LAMMPS (29 Aug 2024 - Update 1)
#DPD

dimension      	3
units          	lj
#comm_modify		vel yes
comm_modify    	mode single cutoff 2.0 vel yes
#newton			off

#atom_style		hybrid atomic charge
atom_style		atomic
#atom_style		charge

#neighbor			0.3 bin
#neigh_modify		delay 0 every 4 check no
neighbor       	2.5 bin
neigh_modify   	delay 2

region			domain block -5 5 -5 5 -5 5 units box
create_box		2 domain
Created orthogonal box = (-5 -5 -5) to (5 5 5)
  2 by 2 by 2 MPI processor grid
change_box 		all boundary p p p
Changing box ...

#lattice			fcc 4
create_atoms		1 random 1500 15255 domain
Created 1500 atoms
  using lattice units in orthogonal box = (-5 -5 -5) to (5 5 5)
  create_atoms CPU = 0.004 seconds
create_atoms		2 random 1500 47214 domain
Created 1500 atoms
  using lattice units in orthogonal box = (-5 -5 -5) to (5 5 5)
  create_atoms CPU = 0.000 seconds
#create_atoms		3 random 98 30182 domain

#dump				dump1 all atom 2 checkargeclas.lammpstrj

#set				type 2 charge  1.0
#set				type 3 charge -1.0
mass				* 1.0

pair_style		dpd 1.0 1.0 419084618

#kspace_style 		pppm 5.0
#pair_style		hybrid/overlay coul/long 2.5 dpd 1.0 1.0 419084618

#kspace_style		ewald 5.0
#pair_coeff		* * lj/cut/coul/long 0 1
pair_coeff		1 1 25.0 4.5 1.0
pair_coeff		1 2 75.0 4.5 1.0
pair_coeff		2 2 25.0 4.5 1.0
#pair_coeff		* * coul/long

thermo_style		custom step temp pe press
thermo 200

#variable			f file tmp.times
#variable			s equal next(f)
#dump				conf_run all custom 100 ./frames/Conf_Run.* id type x y z vx vy vz
#dump_modify		conf_run every v_s
#dump_modify		conf_run sort id

dump			dump0 all atom 200 test.lammpstrj

velocity			all create 1.0 8178251
fix				integrator all nve

timestep       	0.001
run 20000
Generated 0 of 1 mixed pair_coeff terms from geometric mixing rule
Neighbor list info ...
  update: every = 1 steps, delay = 2 steps, check = yes
  max neighbors/atom: 2000, page size: 100000
  master list distance cutoff = 3.5
  ghost atom cutoff = 3.5
  binsize = 1.75, bins = 6 6 6
  1 neighbor lists, perpetual/occasional/extra = 1 0 0
  (1) pair dpd, perpetual
      attributes: half, newton on
      pair build: half/bin/atomonly/newton
      stencil: half/bin/3d
      bin: standard
WARNING: Communication cutoff adjusted to 3.5 (../comm.cpp:739)
Per MPI rank memory allocation (min/avg/max) = 3.39 | 3.63 | 3.775 Mbytes
   Step          Temp          PotEng         Press     
         0   1              16.195558      51.277286    
       200   4.3513975      8.5965259      49.222053    
       400   3.6681762      7.5502146      45.088968    
       600   3.0185519      6.9936419      40.36424     
       800   2.4992982      6.5834037      35.892721    
      1000   2.1404344      6.2965645      35.362749    
      1200   1.8818383      6.0717314      33.470357    
      1400   1.7191072      5.8708277      33.290346    
      1600   1.5687234      5.7275855      31.954495    
      1800   1.4449235      5.6117577      30.641814    
      2000   1.3327391      5.5661862      29.979669    
      2200   1.2933562      5.4708305      30.614254    
      2400   1.2619627      5.4193045      29.174782    
      2600   1.2082817      5.3770921      29.731058    
      2800   1.1882995      5.3536115      28.642658    
      3000   1.1640324      5.3128421      28.564683    
      3200   1.1655365      5.2805524      28.567547    
      3400   1.1308182      5.2520953      28.587355    
      3600   1.1043109      5.2546127      27.155587    
      3800   1.0984451      5.1985496      28.941044    
      4000   1.0887575      5.1846546      28.348765    
      4200   1.0688108      5.1713201      27.681988    
      4400   1.0603838      5.1483117      27.432325    
      4600   1.05963        5.1286576      27.541874    
      4800   1.0386843      5.1386398      26.996123    
      5000   1.04005        5.1309004      26.597517    
      5200   1.0586671      5.1062046      26.799247    
      5400   1.0553207      5.1230071      26.697553    
      5600   1.042927       5.1182344      28.261264    
      5800   1.0633859      5.0731358      28.530369    
      6000   1.0535787      5.0741075      28.260743    
      6200   1.041078       5.052548       26.614607    
      6400   1.0440178      5.0499222      28.322565    
      6600   1.0482282      5.0275151      26.886839    
      6800   1.037569       5.0432543      26.68674     
      7000   1.0535284      5.0199503      26.674805    
      7200   1.0450376      5.028141       26.57889     
      7400   1.0465946      5.0059514      27.106791    
      7600   1.0418133      5.0002357      25.970482    
      7800   1.0610091      4.989558       26.103545    
      8000   1.02618        5.0015093      27.046618    
      8200   1.0289354      5.0037937      27.064973    
      8400   1.0121516      4.9931122      26.437118    
      8600   1.0245919      4.9615059      27.33841     
      8800   1.0259215      4.945131       26.673496    
      9000   1.013148       4.9642097      26.545443    
      9200   1.0134299      4.9505042      26.447452    
      9400   1.0211039      4.9255446      26.189806    
      9600   1.0319121      4.9121481      26.270792    
      9800   1.0036857      4.9430267      26.059322    
     10000   1.018242       4.9447138      25.941197    
     10200   1.037107       4.9139757      25.935185    
     10400   0.99271955     4.9368491      26.480601    
     10600   1.0177138      4.8812762      25.321667    
     10800   1.0132725      4.8926342      27.60634     
     11000   0.99641063     4.9269738      25.613025    
     11200   1.0256783      4.8926668      26.690542    
     11400   1.0281404      4.8748498      26.633909    
     11600   1.0131371      4.8909767      25.370977    
     11800   1.0275973      4.8618972      25.470561    
     12000   1.0129124      4.8652551      26.793574    
     12200   1.0360471      4.8594731      26.098722    
     12400   0.98882373     4.9033522      25.233126    
     12600   1.0191537      4.8659946      26.842617    
     12800   1.0203819      4.8626354      25.719868    
     13000   1.0189615      4.8353272      25.158091    
     13200   1.0021253      4.8577286      23.899197    
     13400   1.0087176      4.8568428      26.774125    
     13600   1.0277477      4.8562601      26.7632      
     13800   1.0552434      4.8262457      25.527352    
     14000   1.0366516      4.8110366      25.949938    
     14200   1.0323245      4.8072242      26.468539    
     14400   1.0041385      4.8316762      25.990443    
     14600   1.0172053      4.8147048      26.499406    
     14800   1.0171634      4.8167923      25.907366    
     15000   1.0297949      4.8253953      24.518691    
     15200   1.0250854      4.8251644      24.194766    
     15400   1.0355732      4.7989262      24.664631    
     15600   1.0242258      4.8241903      25.9709      
     15800   1.0227783      4.8207359      25.69122     
     16000   1.03894        4.8197727      26.876471    
     16200   1.0108976      4.8179772      25.592966    
     16400   0.99703052     4.8112929      26.594923    
     16600   1.024019       4.8077028      25.514749    
     16800   1.0108437      4.8303545      24.723084    
     17000   1.0060433      4.8148828      26.093355    
     17200   1.0083964      4.787396       24.35593     
     17400   0.99924084     4.7972388      24.683691    
     17600   0.99548157     4.7874136      25.218504    
     17800   0.99764585     4.7942103      25.056071    
     18000   1.0090659      4.779742       24.958864    
     18200   0.98462583     4.777063       26.117387    
     18400   0.97217563     4.7907364      24.774809    
     18600   0.98533047     4.7648722      24.774067    
     18800   0.97892309     4.7628725      24.672584    
     19000   0.97685319     4.7767266      24.851345    
     19200   1.0021152      4.7646983      25.10432     
     19400   0.98570312     4.7850144      25.175507    
     19600   0.99312591     4.7985013      25.745666    
     19800   1.0012646      4.7873762      25.043422    
     20000   1.0255356      4.7589248      26.020277    
Loop time of 21.8188 on 8 procs for 20000 steps with 3000 atoms

Performance: 79197.746 tau/day, 916.641 timesteps/s, 2.750 Matom-step/s
97.0% CPU use with 8 MPI tasks x no OpenMP threads

MPI task timing breakdown:
Section |  min time  |  avg time  |  max time  |%varavg| %total
---------------------------------------------------------------
Pair    | 8.7168     | 9.2897     | 9.7642     |  12.0 | 42.58
Neigh   | 0.19109    | 0.20929    | 0.23375    |   2.7 |  0.96
Comm    | 11.006     | 11.46      | 12.008     |  10.1 | 52.53
Output  | 0.051852   | 0.058186   | 0.064385   |   1.6 |  0.27
Modify  | 0.090005   | 0.092876   | 0.095537   |   0.5 |  0.43
Other   |            | 0.7085     |            |       |  3.25

Nlocal:            375 ave         382 max         365 min
Histogram: 1 1 0 0 1 0 1 1 2 1
Nghost:        4830.62 ave        4863 max        4797 min
Histogram: 1 0 2 1 0 1 1 0 0 2
Neighs:         100862 ave      107082 max       92520 min
Histogram: 2 0 0 0 1 1 0 2 0 2

Total # of neighbors = 806896
Ave neighs/atom = 268.96533
Neighbor list builds = 65
Dangerous builds = 0
#run 10000

Total wall time: 0:00:21
