LAMMPS (29 Aug 2024 - Update 1)
#DPD

dimension      	3
units          	lj
#comm_modify		vel yes
comm_modify    	mode single cutoff 2.0 vel yes
#newton			off

#atom_style		hybrid atomic charge
atom_style		atomic
#atom_style		charge

#neighbor			0.3 bin
#neigh_modify		delay 0 every 4 check no
neighbor       	2.5 bin
neigh_modify   	delay 2

region			domain block -5 5 -5 5 -5 5 units box
create_box		2 domain
Created orthogonal box = (-5 -5 -5) to (5 5 5)
  2 by 2 by 2 MPI processor grid
change_box 		all boundary p p p
Changing box ...

#lattice			fcc 4
create_atoms		1 random 1500 15255 domain
Created 1500 atoms
  using lattice units in orthogonal box = (-5 -5 -5) to (5 5 5)
  create_atoms CPU = 0.003 seconds
create_atoms		2 random 1500 47214 domain
Created 1500 atoms
  using lattice units in orthogonal box = (-5 -5 -5) to (5 5 5)
  create_atoms CPU = 0.000 seconds
#create_atoms		3 random 98 30182 domain

#dump				dump1 all atom 2 checkargeclas.lammpstrj

#set				type 2 charge  1.0
#set				type 3 charge -1.0
mass				* 1.0

pair_style		dpd 1.0 1.0 419084618

#kspace_style 		pppm 5.0
#pair_style		hybrid/overlay coul/long 2.5 dpd 1.0 1.0 419084618

#kspace_style		ewald 5.0
#pair_coeff		* * lj/cut/coul/long 0 1
pair_coeff		1 1 25.0 4.5 1.0
pair_coeff		1 2 100.0 4.5 1.0
pair_coeff		2 2 25.0 4.5 1.0
#pair_coeff		* * coul/long

thermo_style		custom step temp pe press
thermo 200

#variable			f file tmp.times
#variable			s equal next(f)
#dump				conf_run all custom 100 ./frames/Conf_Run.* id type x y z vx vy vz
#dump_modify		conf_run every v_s
#dump_modify		conf_run sort id

dump			dump0 all atom 200 test.lammpstrj

velocity			all create 1.0 8178251
fix				integrator all nve

timestep       	0.001
run 20000
Generated 0 of 1 mixed pair_coeff terms from geometric mixing rule
Neighbor list info ...
  update: every = 1 steps, delay = 2 steps, check = yes
  max neighbors/atom: 2000, page size: 100000
  master list distance cutoff = 3.5
  ghost atom cutoff = 3.5
  binsize = 1.75, bins = 6 6 6
  1 neighbor lists, perpetual/occasional/extra = 1 0 0
  (1) pair dpd, perpetual
      attributes: half, newton on
      pair build: half/bin/atomonly/newton
      stencil: half/bin/3d
      bin: standard
WARNING: Communication cutoff adjusted to 3.5 (../comm.cpp:739)
Per MPI rank memory allocation (min/avg/max) = 3.39 | 3.63 | 3.775 Mbytes
   Step          Temp          PotEng         Press     
         0   1              20.272476      63.336704    
       200   5.8261417      9.4045349      58.240091    
       400   4.5969736      8.1837349      48.737866    
       600   3.6726873      7.4107411      43.050806    
       800   3.0170968      6.9137959      40.134482    
      1000   2.5292128      6.4880212      38.370195    
      1200   2.1767806      6.2739457      35.255628    
      1400   1.9330464      6.0463172      34.228074    
      1600   1.7483865      5.8693483      32.584891    
      1800   1.5945846      5.7567648      30.828604    
      2000   1.4921149      5.6344586      30.150163    
      2200   1.3824446      5.5620232      30.830807    
      2400   1.3192159      5.4741381      29.13611     
      2600   1.2623605      5.4409304      29.65185     
      2800   1.2156102      5.4157821      29.859223    
      3000   1.1872105      5.3874779      30.029754    
      3200   1.173489       5.3490729      27.922217    
      3400   1.1413525      5.3164637      28.68605     
      3600   1.1180611      5.2680004      28.41701     
      3800   1.0993365      5.2274378      28.578392    
      4000   1.0723198      5.2281038      28.14273     
      4200   1.078753       5.1858321      27.585826    
      4400   1.0535573      5.1764631      28.872127    
      4600   1.0644314      5.1473306      27.503674    
      4800   1.0702806      5.1107375      27.193228    
      5000   1.0514429      5.1403581      27.703703    
      5200   1.0526052      5.1176637      27.574829    
      5400   1.0622491      5.1007183      26.255234    
      5600   1.0742535      5.0985851      26.31958     
      5800   1.0607116      5.1108154      28.184648    
      6000   1.055513       5.0971353      27.908986    
      6200   1.0368001      5.0789473      26.627336    
      6400   1.0335401      5.0633558      26.348511    
      6600   1.0485251      5.0384435      28.015833    
      6800   1.0399526      5.0295807      25.634522    
      7000   1.0560183      5.0211045      27.695464    
      7200   1.0317085      5.0251663      26.647489    
      7400   1.029654       5.0190461      26.128548    
      7600   1.0362197      4.9933565      25.855802    
      7800   1.0320264      4.9777         26.345672    
      8000   1.0353749      4.9863477      25.882606    
      8200   1.0195398      4.9976038      27.351667    
      8400   1.026829       4.9713983      27.396002    
      8600   1.0373261      4.9654562      27.127116    
      8800   1.0299883      4.9832588      27.386008    
      9000   1.0229095      4.9558339      26.351908    
      9200   1.0062796      4.9769236      26.512454    
      9400   1.0287363      4.9663823      25.595935    
      9600   1.0245685      4.9399936      26.973946    
      9800   1.0158958      4.9689196      27.242081    
     10000   1.0248478      4.9434453      25.798445    
     10200   1.0201015      4.9708388      27.150188    
     10400   1.0070602      4.9723206      25.703441    
     10600   1.0379312      4.9400849      26.637754    
     10800   1.0415181      4.9638601      26.101917    
     11000   1.0260058      4.9495024      27.506631    
     11200   1.0373273      4.9188985      26.902894    
     11400   1.0337052      4.9017447      25.022775    
     11600   1.018226       4.9364895      26.060675    
     11800   1.0312795      4.9125664      25.315484    
     12000   1.0248348      4.8863116      25.469793    
     12200   1.0183728      4.8977215      26.250317    
     12400   1.01336        4.8962003      26.375282    
     12600   1.0057702      4.8924256      25.165313    
     12800   1.0409875      4.8487109      26.810864    
     13000   1.0140899      4.872185       25.651169    
     13200   1.0105578      4.8707457      25.993709    
     13400   1.0247874      4.8444018      25.582556    
     13600   1.0147576      4.8686767      26.30136     
     13800   1.0146568      4.8496998      25.333259    
     14000   1.013022       4.8613989      25.674386    
     14200   1.0164555      4.8399763      25.456506    
     14400   1.007535       4.8234853      25.972216    
     14600   1.0245203      4.8323318      25.092116    
     14800   0.99883509     4.8499495      25.915415    
     15000   1.017761       4.8438587      25.767488    
     15200   1.0465289      4.8032165      26.143424    
     15400   1.0291067      4.8391277      25.426581    
     15600   1.0349589      4.8395922      24.974507    
     15800   1.021052       4.8282594      26.737738    
     16000   1.0178544      4.8338688      25.094567    
     16200   1.0218281      4.8071439      26.353946    
     16400   1.0230695      4.8063297      26.168464    
     16600   1.0223206      4.8250766      24.749022    
     16800   1.0137838      4.8335973      25.964163    
     17000   1.0302495      4.8264987      25.638567    
     17200   1.030697       4.8361079      24.633827    
     17400   1.0242377      4.8631108      26.951322    
     17600   1.0332244      4.8436604      26.35218     
     17800   1.0166206      4.8430863      25.100243    
     18000   1.0434214      4.8147261      25.890679    
     18200   1.0293134      4.8387583      25.760547    
     18400   1.0152567      4.8229059      24.92761     
     18600   0.99164166     4.8403766      25.740546    
     18800   1.0060244      4.8189765      25.59838     
     19000   1.021403       4.8233045      25.055534    
     19200   0.99296255     4.8248584      26.01895     
     19400   0.99541572     4.7980848      25.826767    
     19600   1.0082483      4.8256505      27.459388    
     19800   1.00345        4.8139087      26.245155    
     20000   1.0068712      4.8204044      27.08612     
Loop time of 26.1952 on 8 procs for 20000 steps with 3000 atoms

Performance: 65966.391 tau/day, 763.500 timesteps/s, 2.290 Matom-step/s
92.6% CPU use with 8 MPI tasks x no OpenMP threads

MPI task timing breakdown:
Section |  min time  |  avg time  |  max time  |%varavg| %total
---------------------------------------------------------------
Pair    | 8.942      | 9.6159     | 10.418     |  14.6 | 36.71
Neigh   | 0.22434    | 0.23358    | 0.2514     |   1.9 |  0.89
Comm    | 13.699     | 14.483     | 15.11      |  11.4 | 55.29
Output  | 0.095715   | 0.10401    | 0.11344    |   2.2 |  0.40
Modify  | 0.094254   | 0.097024   | 0.099817   |   0.5 |  0.37
Other   |            | 1.661      |            |       |  6.34

Nlocal:            375 ave         384 max         367 min
Histogram: 1 2 0 1 0 1 0 2 0 1
Nghost:        4822.75 ave        4867 max        4795 min
Histogram: 2 1 0 3 0 0 0 0 1 1
Neighs:         100913 ave      105655 max       94444 min
Histogram: 1 1 0 0 1 1 0 2 1 1

Total # of neighbors = 807307
Ave neighs/atom = 269.10233
Neighbor list builds = 67
Dangerous builds = 0
#run 10000

Total wall time: 0:00:26
