LAMMPS (29 Aug 2024 - Update 1)
#DPD

dimension      	3
units          	lj
#comm_modify		vel yes
comm_modify    	mode single cutoff 2.0 vel yes
#newton			off

#atom_style		hybrid atomic charge
atom_style		atomic
#atom_style		charge

#neighbor			0.3 bin
#neigh_modify		delay 0 every 4 check no
neighbor       	2.5 bin
neigh_modify   	delay 2

region			domain block -5 5 -5 5 -5 5 units box
create_box		2 domain
Created orthogonal box = (-5 -5 -5) to (5 5 5)
  2 by 2 by 2 MPI processor grid
change_box 		all boundary p p p
Changing box ...

#lattice			fcc 4
create_atoms		1 random 1500 15255 domain
Created 1500 atoms
  using lattice units in orthogonal box = (-5 -5 -5) to (5 5 5)
  create_atoms CPU = 0.001 seconds
create_atoms		2 random 1500 47214 domain
Created 1500 atoms
  using lattice units in orthogonal box = (-5 -5 -5) to (5 5 5)
  create_atoms CPU = 0.000 seconds
#create_atoms		3 random 98 30182 domain

#dump				dump1 all atom 2 checkargeclas.lammpstrj

#set				type 2 charge  1.0
#set				type 3 charge -1.0
mass				* 1.0

pair_style		dpd 1.0 1.0 419084618

#kspace_style 		pppm 5.0
#pair_style		hybrid/overlay coul/long 2.5 dpd 1.0 1.0 419084618

#kspace_style		ewald 5.0
#pair_coeff		* * lj/cut/coul/long 0 1
pair_coeff		1 1 25.0 4.5 1.0
pair_coeff		1 2 25.0 4.5 1.0
pair_coeff		2 2 25.0 4.5 1.0
#pair_coeff		* * coul/long

thermo_style		custom step temp pe press
thermo 200

#variable			f file tmp.times
#variable			s equal next(f)
#dump				conf_run all custom 100 ./frames/Conf_Run.* id type x y z vx vy vz
#dump_modify		conf_run every v_s
#dump_modify		conf_run sort id

dump			dump0 all atom 200 test.lammpstrj

velocity			all create 1.0 8178251
fix				integrator all nve

timestep       	0.001
run 20000
Generated 0 of 1 mixed pair_coeff terms from geometric mixing rule
Neighbor list info ...
  update: every = 1 steps, delay = 2 steps, check = yes
  max neighbors/atom: 2000, page size: 100000
  master list distance cutoff = 3.5
  ghost atom cutoff = 3.5
  binsize = 1.75, bins = 6 6 6
  1 neighbor lists, perpetual/occasional/extra = 1 0 0
  (1) pair dpd, perpetual
      attributes: half, newton on
      pair build: half/bin/atomonly/newton
      stencil: half/bin/3d
      bin: standard
WARNING: Communication cutoff adjusted to 3.5 (../comm.cpp:739)
Per MPI rank memory allocation (min/avg/max) = 3.39 | 3.63 | 3.775 Mbytes
   Step          Temp          PotEng         Press     
         0   1              8.0417224      27.158452    
       200   2.3213983      5.0937838      29.196841    
       400   1.8633798      5.0819659      26.662012    
       600   1.6490048      4.9576277      25.732619    
       800   1.461675       4.8846167      24.534285    
      1000   1.3557956      4.8036518      24.264781    
      1200   1.2967011      4.7365047      24.5966      
      1400   1.2683892      4.6982815      23.837192    
      1600   1.1972877      4.6775794      25.176272    
      1800   1.1649377      4.6461815      24.46801     
      2000   1.1403772      4.6361282      23.857655    
      2200   1.11305        4.6168938      24.104122    
      2400   1.0887756      4.6030427      24.800101    
      2600   1.0611375      4.5878169      23.344178    
      2800   1.0550166      4.5884533      23.393737    
      3000   1.058966       4.55915        24.816827    
      3200   1.025573       4.5708121      23.712833    
      3400   1.0144839      4.5813274      24.310061    
      3600   1.0082125      4.5816448      23.387365    
      3800   1.0114015      4.5815284      23.263375    
      4000   1.0362993      4.5342283      23.404402    
      4200   1.0314733      4.5645302      24.103152    
      4400   1.0103974      4.5609018      23.958868    
      4600   1.0240505      4.557377       22.728377    
      4800   1.0100825      4.546879       22.984849    
      5000   1.0157923      4.541031       24.658904    
      5200   0.99294756     4.555669       23.591916    
      5400   1.0144702      4.5437024      23.328921    
      5600   0.99844854     4.5577345      24.775588    
      5800   1.0075486      4.5521904      24.727428    
      6000   1.013746       4.5537877      24.495861    
      6200   1.0187732      4.552002       25.076102    
      6400   1.0174476      4.5611177      23.881865    
      6600   1.0068127      4.5528495      23.139884    
      6800   0.9791758      4.5677727      23.711837    
      7000   0.984041       4.5317182      23.5985      
      7200   0.986953       4.5278038      24.105101    
      7400   1.0041377      4.5154457      24.607098    
      7600   0.98263539     4.5562075      23.886392    
      7800   1.0054968      4.5302149      23.166953    
      8000   0.99390157     4.5224427      24.30303     
      8200   1.0039022      4.5332857      23.822217    
      8400   1.0045743      4.5238394      23.454094    
      8600   0.96021287     4.5536943      23.878497    
      8800   0.98756567     4.5177927      24.691667    
      9000   0.97040963     4.5302725      22.679135    
      9200   1.0088066      4.5101806      24.501187    
      9400   0.98068385     4.5163254      22.846946    
      9600   0.98905608     4.5523903      23.128316    
      9800   1.0224761      4.5148556      24.208161    
     10000   0.99231596     4.5664665      22.921156    
     10200   1.0074122      4.5662891      23.050541    
     10400   1.0140573      4.5649055      24.458746    
     10600   1.0144134      4.5566393      25.115548    
     10800   1.0024091      4.573962       23.888166    
     11000   1.0028126      4.5631862      23.548271    
     11200   0.99286518     4.5590247      24.585961    
     11400   1.0111705      4.5418755      23.177137    
     11600   0.98558477     4.58798        23.882012    
     11800   1.0187748      4.5205968      22.833596    
     12000   0.99530452     4.5434921      22.848161    
     12200   0.98066567     4.5322278      23.457783    
     12400   0.96616719     4.5316989      23.844956    
     12600   0.97614599     4.5336813      23.467539    
     12800   0.97861039     4.5280211      25.147354    
     13000   0.97519429     4.5229949      23.770862    
     13200   0.99322929     4.521737       23.958111    
     13400   0.97338394     4.5424001      23.102491    
     13600   0.98214431     4.5341902      24.298127    
     13800   1.0077806      4.52961        24.741841    
     14000   0.99544134     4.5406733      22.579636    
     14200   0.98825675     4.5460466      24.426551    
     14400   1.0047047      4.5384352      23.877606    
     14600   1.010786       4.5356864      23.956375    
     14800   0.98848709     4.5616334      22.253474    
     15000   0.98877595     4.5495927      23.377969    
     15200   0.97749619     4.5430165      23.150656    
     15400   0.965772       4.5419329      24.402868    
     15600   0.98754783     4.5340002      24.114359    
     15800   0.98225665     4.5392936      23.894171    
     16000   0.97201514     4.5388931      23.619005    
     16200   0.98208038     4.5125633      23.582016    
     16400   0.97507359     4.5217002      24.149598    
     16600   0.99472552     4.5187698      24.290782    
     16800   0.9873905      4.5367865      23.498973    
     17000   0.98545087     4.5374227      23.524184    
     17200   0.97698894     4.5549915      23.414473    
     17400   0.97797929     4.5694903      22.798861    
     17600   0.99708808     4.5521934      23.686643    
     17800   0.98853237     4.5278765      24.176565    
     18000   0.98890071     4.5500187      24.429627    
     18200   0.99111775     4.5568214      23.38832     
     18400   1.008855       4.5493401      24.632538    
     18600   1.0085098      4.5372837      24.421426    
     18800   1.0069179      4.5379643      23.952292    
     19000   1.0256126      4.5322205      24.347917    
     19200   1.0276852      4.534303       23.303944    
     19400   1.0099986      4.569239       23.116834    
     19600   1.0091506      4.553513       22.690512    
     19800   1.0181538      4.5279844      23.884521    
     20000   0.9774465      4.5402652      22.495509    
Loop time of 21.3596 on 8 procs for 20000 steps with 3000 atoms

Performance: 80900.418 tau/day, 936.347 timesteps/s, 2.809 Matom-step/s
97.5% CPU use with 8 MPI tasks x no OpenMP threads

MPI task timing breakdown:
Section |  min time  |  avg time  |  max time  |%varavg| %total
---------------------------------------------------------------
Pair    | 8.7594     | 9.2873     | 9.8584     |  12.3 | 43.48
Neigh   | 0.19882    | 0.20779    | 0.2188     |   1.7 |  0.97
Comm    | 10.574     | 11.106     | 11.61      |  10.6 | 51.99
Output  | 0.049977   | 0.055818   | 0.062607   |   1.7 |  0.26
Modify  | 0.091237   | 0.092847   | 0.09425    |   0.3 |  0.43
Other   |            | 0.6102     |            |       |  2.86

Nlocal:            375 ave         386 max         368 min
Histogram: 2 1 0 0 2 2 0 0 0 1
Nghost:        4823.25 ave        4867 max        4784 min
Histogram: 1 0 3 0 0 0 2 1 0 1
Neighs:         100860 ave      110445 max       94107 min
Histogram: 1 2 1 0 1 0 2 0 0 1

Total # of neighbors = 806879
Ave neighs/atom = 268.95967
Neighbor list builds = 64
Dangerous builds = 0
#run 10000

Total wall time: 0:00:21
